p cnf 249 1299
157 162 166 0
138 155 163 237 0
131 137 146 0
120 152 170 198 0
135 143 149 159 173 177 0
91 164 184 0
136 172 0
96 189 248 0
111 113 116 182 0
106 108 0
100 105 0
123 124 128 142 0
89 92 217 0
84 86 144 221 224 0
82 83 99 103 130 187 188 0
80 94 151 169 0
190 192 193 0
114 118 195 0
109 197 0
153 199 0
201 219 0
191 202 204 0
119 183 205 0
112 206 207 208 0
167 209 0
211 213 0
97 125 129 216 0
93 176 180 218 0
85 87 222 0
225 226 229 231 0
194 232 0
210 233 234 236 0
133 139 147 0
101 212 214 238 239 0
126 150 154 160 0
134 220 240 0
228 242 0
244 246 0
95 247 249 0
75 76 78 79 203 0
73 74 0
70 71 104 0
68 69 0
67 122 127 141 0
64 65 66 88 0
-63 -112 0
-62 -63 0
-62 -112 0
-233 -238 0
-126 -233 0
-126 -238 0
-61 -79 0
-61 -74 0
-74 -79 0
-63 -233 0
-61 -63 0
-61 -233 0
-112 -238 0
-79 -112 0
-79 -238 0
-62 -126 0
-62 -74 0
-74 -126 0
-59 -146 0
-146 -159 0
-146 -172 0
-59 -159 0
-59 -172 0
-159 -172 0
-217 -221 0
-103 -217 0
-195 -217 0
-103 -221 0
-195 -221 0
-103 -195 0
-140 -180 0
-140 -225 0
-140 -168 0
-180 -225 0
-168 -180 0
-168 -225 0
-57 -234 0
-101 -234 0
-234 -240 0
-57 -101 0
-57 -240 0
-101 -240 0
-146 -217 0
-140 -146 0
-146 -234 0
-140 -217 0
-217 -234 0
-140 -234 0
-59 -221 0
-59 -180 0
-57 -59 0
-180 -221 0
-57 -221 0
-57 -180 0
-103 -159 0
-159 -225 0
-101 -159 0
-103 -225 0
-101 -103 0
-101 -225 0
-172 -195 0
-168 -172 0
-172 -240 0
-168 -195 0
-195 -240 0
-168 -240 0
-137 -155 0
-56 -155 0
-55 -155 0
-56 -137 0
-55 -137 0
-55 -56 0
-54 -197 0
-54 -132 0
-54 -219 0
-132 -197 0
-197 -219 0
-132 -219 0
-121 -216 0
-176 -216 0
-186 -216 0
-121 -176 0
-121 -186 0
-176 -186 0
-117 -236 0
-53 -117 0
-117 -154 0
-53 -236 0
-154 -236 0
-53 -154 0
-54 -155 0
-155 -216 0
-117 -155 0
-54 -216 0
-54 -117 0
-117 -216 0
-137 -197 0
-121 -137 0
-137 -236 0
-121 -197 0
-197 -236 0
-121 -236 0
-56 -132 0
-56 -176 0
-53 -56 0
-132 -176 0
-53 -132 0
-53 -176 0
-55 -219 0
-55 -186 0
-55 -154 0
-186 -219 0
-154 -219 0
-154 -186 0
-131 -166 0
-51 -166 0
-166 -198 0
-149 -166 0
-51 -131 0
-131 -198 0
-131 -149 0
-51 -198 0
-51 -149 0
-149 -198 0
-49 -77 0
-49 -182 0
-48 -49 0
-47 -49 0
-77 -182 0
-48 -77 0
-47 -77 0
-48 -182 0
-47 -182 0
-47 -48 0
-92 -124 0
-86 -124 0
-124 -230 0
-99 -124 0
-86 -92 0
-92 -230 0
-92 -99 0
-86 -230 0
-86 -99 0
-99 -230 0
-45 -46 0
-46 -244 0
-46 -247 0
-46 -203 0
-45 -244 0
-45 -247 0
-45 -203 0
-244 -247 0
-203 -244 0
-203 -247 0
-44 -69 0
-44 -67 0
-42 -44 0
-44 -66 0
-67 -69 0
-42 -69 0
-66 -69 0
-42 -67 0
-66 -67 0
-42 -66 0
-49 -166 0
-124 -166 0
-46 -166 0
-44 -166 0
-49 -124 0
-46 -49 0
-44 -49 0
-46 -124 0
-44 -124 0
-44 -46 0
-77 -131 0
-92 -131 0
-45 -131 0
-69 -131 0
-77 -92 0
-45 -77 0
-69 -77 0
-45 -92 0
-69 -92 0
-45 -69 0
-51 -182 0
-51 -86 0
-51 -244 0
-51 -67 0
-86 -182 0
-182 -244 0
-67 -182 0
-86 -244 0
-67 -86 0
-67 -244 0
-48 -198 0
-198 -230 0
-198 -247 0
-42 -198 0
-48 -230 0
-48 -247 0
-42 -48 0
-230 -247 0
-42 -230 0
-42 -247 0
-47 -149 0
-99 -149 0
-149 -203 0
-66 -149 0
-47 -99 0
-47 -203 0
-47 -66 0
-99 -203 0
-66 -99 0
-66 -203 0
-143 -162 0
-162 -184 0
-143 -184 0
-83 -128 0
-128 -151 0
-83 -151 0
-78 -200 0
-181 -200 0
-78 -181 0
-128 -162 0
-162 -200 0
-128 -200 0
-83 -143 0
-78 -143 0
-78 -83 0
-151 -184 0
-181 -184 0
-151 -181 0
-138 -157 0
-41 -157 0
-120 -157 0
-135 -157 0
-91 -157 0
-157 -227 0
-41 -138 0
-120 -138 0
-135 -138 0
-91 -138 0
-138 -227 0
-41 -120 0
-41 -135 0
-41 -91 0
-41 -227 0
-120 -135 0
-91 -120 0
-120 -227 0
-91 -135 0
-135 -227 0
-91 -227 0
-245 -248 0
-116 -245 0
-39 -245 0
-38 -245 0
-108 -245 0
-105 -245 0
-116 -248 0
-39 -248 0
-38 -248 0
-108 -248 0
-105 -248 0
-39 -116 0
-38 -116 0
-108 -116 0
-105 -116 0
-38 -39 0
-39 -108 0
-39 -105 0
-38 -108 0
-38 -105 0
-105 -108 0
-142 -179 0
-142 -224 0
-36 -142 0
-82 -142 0
-142 -169 0
-142 -190 0
-179 -224 0
-36 -179 0
-82 -179 0
-169 -179 0
-179 -190 0
-36 -224 0
-82 -224 0
-169 -224 0
-190 -224 0
-36 -82 0
-36 -169 0
-36 -190 0
-82 -169 0
-82 -190 0
-169 -190 0
-34 -35 0
-35 -202 0
-35 -183 0
-35 -206 0
-35 -209 0
-33 -35 0
-34 -202 0
-34 -183 0
-34 -206 0
-34 -209 0
-33 -34 0
-183 -202 0
-202 -206 0
-202 -209 0
-33 -202 0
-183 -206 0
-183 -209 0
-33 -183 0
-206 -209 0
-33 -206 0
-33 -209 0
-97 -211 0
-93 -211 0
-87 -211 0
-211 -226 0
-32 -211 0
-31 -211 0
-93 -97 0
-87 -97 0
-97 -226 0
-32 -97 0
-31 -97 0
-87 -93 0
-93 -226 0
-32 -93 0
-31 -93 0
-87 -226 0
-32 -87 0
-31 -87 0
-32 -226 0
-31 -226 0
-31 -32 0
-30 -232 0
-161 -232 0
-147 -232 0
-232 -239 0
-29 -232 0
-160 -232 0
-30 -161 0
-30 -147 0
-30 -239 0
-29 -30 0
-30 -160 0
-147 -161 0
-161 -239 0
-29 -161 0
-160 -161 0
-147 -239 0
-29 -147 0
-147 -160 0
-29 -239 0
-160 -239 0
-29 -160 0
-28 -71 0
-28 -127 0
-27 -28 0
-28 -65 0
-26 -28 0
-25 -28 0
-71 -127 0
-27 -71 0
-65 -71 0
-26 -71 0
-25 -71 0
-27 -127 0
-65 -127 0
-26 -127 0
-25 -127 0
-27 -65 0
-26 -27 0
-25 -27 0
-26 -65 0
-25 -65 0
-25 -26 0
-157 -245 0
-142 -157 0
-35 -157 0
-157 -211 0
-157 -232 0
-28 -157 0
-142 -245 0
-35 -245 0
-211 -245 0
-232 -245 0
-28 -245 0
-35 -142 0
-142 -211 0
-142 -232 0
-28 -142 0
-35 -211 0
-35 -232 0
-28 -35 0
-211 -232 0
-28 -211 0
-28 -232 0
-138 -248 0
-138 -179 0
-34 -138 0
-97 -138 0
-30 -138 0
-71 -138 0
-179 -248 0
-34 -248 0
-97 -248 0
-30 -248 0
-71 -248 0
-34 -179 0
-97 -179 0
-30 -179 0
-71 -179 0
-34 -97 0
-30 -34 0
-34 -71 0
-30 -97 0
-71 -97 0
-30 -71 0
-41 -116 0
-41 -224 0
-41 -202 0
-41 -93 0
-41 -161 0
-41 -127 0
-116 -224 0
-116 -202 0
-93 -116 0
-116 -161 0
-116 -127 0
-202 -224 0
-93 -224 0
-161 -224 0
-127 -224 0
-93 -202 0
-161 -202 0
-127 -202 0
-93 -161 0
-93 -127 0
-127 -161 0
-39 -120 0
-36 -120 0
-120 -183 0
-87 -120 0
-120 -147 0
-27 -120 0
-36 -39 0
-39 -183 0
-39 -87 0
-39 -147 0
-27 -39 0
-36 -183 0
-36 -87 0
-36 -147 0
-27 -36 0
-87 -183 0
-147 -183 0
-27 -183 0
-87 -147 0
-27 -87 0
-27 -147 0
-38 -135 0
-82 -135 0
-135 -206 0
-135 -226 0
-135 -239 0
-65 -135 0
-38 -82 0
-38 -206 0
-38 -226 0
-38 -239 0
-38 -65 0
-82 -206 0
-82 -226 0
-82 -239 0
-65 -82 0
-206 -226 0
-206 -239 0
-65 -206 0
-226 -239 0
-65 -226 0
-65 -239 0
-91 -108 0
-91 -169 0
-91 -209 0
-32 -91 0
-29 -91 0
-26 -91 0
-108 -169 0
-108 -209 0
-32 -108 0
-29 -108 0
-26 -108 0
-169 -209 0
-32 -169 0
-29 -169 0
-26 -169 0
-32 -209 0
-29 -209 0
-26 -209 0
-29 -32 0
-26 -32 0
-26 -29 0
-105 -227 0
-190 -227 0
-33 -227 0
-31 -227 0
-160 -227 0
-25 -227 0
-105 -190 0
-33 -105 0
-31 -105 0
-105 -160 0
-25 -105 0
-33 -190 0
-31 -190 0
-160 -190 0
-25 -190 0
-31 -33 0
-33 -160 0
-25 -33 0
-31 -160 0
-25 -31 0
-25 -160 0
-24 -189 0
-23 -24 0
-24 -113 0
-22 -24 0
-21 -24 0
-24 -106 0
-24 -215 0
-23 -189 0
-113 -189 0
-22 -189 0
-21 -189 0
-106 -189 0
-189 -215 0
-23 -113 0
-22 -23 0
-21 -23 0
-23 -106 0
-23 -215 0
-22 -113 0
-21 -113 0
-106 -113 0
-113 -215 0
-21 -22 0
-22 -106 0
-22 -215 0
-21 -106 0
-21 -215 0
-106 -215 0
-123 -175 0
-89 -123 0
-84 -123 0
-20 -123 0
-123 -187 0
-80 -123 0
-118 -123 0
-89 -175 0
-84 -175 0
-20 -175 0
-175 -187 0
-80 -175 0
-118 -175 0
-84 -89 0
-20 -89 0
-89 -187 0
-80 -89 0
-89 -118 0
-20 -84 0
-84 -187 0
-80 -84 0
-84 -118 0
-20 -187 0
-20 -80 0
-20 -118 0
-80 -187 0
-118 -187 0
-80 -118 0
-52 -235 0
-109 -235 0
-145 -235 0
-58 -235 0
-153 -235 0
-158 -235 0
-18 -235 0
-52 -109 0
-52 -145 0
-52 -58 0
-52 -153 0
-52 -158 0
-18 -52 0
-109 -145 0
-58 -109 0
-109 -153 0
-109 -158 0
-18 -109 0
-58 -145 0
-145 -153 0
-145 -158 0
-18 -145 0
-58 -153 0
-58 -158 0
-18 -58 0
-153 -158 0
-18 -153 0
-18 -158 0
-17 -171 0
-16 -171 0
-171 -191 0
-171 -205 0
-171 -207 0
-167 -171 0
-15 -171 0
-16 -17 0
-17 -191 0
-17 -205 0
-17 -207 0
-17 -167 0
-15 -17 0
-16 -191 0
-16 -205 0
-16 -207 0
-16 -167 0
-15 -16 0
-191 -205 0
-191 -207 0
-167 -191 0
-15 -191 0
-205 -207 0
-167 -205 0
-15 -205 0
-167 -207 0
-15 -207 0
-15 -167 0
-129 -213 0
-14 -213 0
-213 -218 0
-213 -222 0
-213 -229 0
-102 -213 0
-13 -213 0
-14 -129 0
-129 -218 0
-129 -222 0
-129 -229 0
-102 -129 0
-13 -129 0
-14 -218 0
-14 -222 0
-14 -229 0
-14 -102 0
-13 -14 0
-218 -222 0
-218 -229 0
-102 -218 0
-13 -218 0
-222 -229 0
-102 -222 0
-13 -222 0
-102 -229 0
-13 -229 0
-13 -102 0
-12 -194 0
-194 -210 0
-156 -194 0
-139 -194 0
-194 -212 0
-40 -194 0
-134 -194 0
-12 -210 0
-12 -156 0
-12 -139 0
-12 -212 0
-12 -40 0
-12 -134 0
-156 -210 0
-139 -210 0
-210 -212 0
-40 -210 0
-134 -210 0
-139 -156 0
-156 -212 0
-40 -156 0
-134 -156 0
-139 -212 0
-40 -139 0
-134 -139 0
-40 -212 0
-134 -212 0
-40 -134 0
-90 -228 0
-11 -90 0
-90 -246 0
-90 -249 0
-76 -90 0
-90 -115 0
-37 -90 0
-11 -228 0
-228 -246 0
-228 -249 0
-76 -228 0
-115 -228 0
-37 -228 0
-11 -246 0
-11 -249 0
-11 -76 0
-11 -115 0
-11 -37 0
-246 -249 0
-76 -246 0
-115 -246 0
-37 -246 0
-76 -249 0
-115 -249 0
-37 -249 0
-76 -115 0
-37 -76 0
-37 -115 0
-104 -107 0
-68 -107 0
-107 -141 0
-107 -178 0
-64 -107 0
-107 -223 0
-81 -107 0
-68 -104 0
-104 -141 0
-104 -178 0
-64 -104 0
-104 -223 0
-81 -104 0
-68 -141 0
-68 -178 0
-64 -68 0
-68 -223 0
-68 -81 0
-141 -178 0
-64 -141 0
-141 -223 0
-81 -141 0
-64 -178 0
-178 -223 0
-81 -178 0
-64 -223 0
-64 -81 0
-81 -223 0
-24 -123 0
-24 -235 0
-24 -171 0
-24 -213 0
-24 -194 0
-24 -90 0
-24 -107 0
-123 -235 0
-123 -171 0
-123 -213 0
-123 -194 0
-90 -123 0
-107 -123 0
-171 -235 0
-213 -235 0
-194 -235 0
-90 -235 0
-107 -235 0
-171 -213 0
-171 -194 0
-90 -171 0
-107 -171 0
-194 -213 0
-90 -213 0
-107 -213 0
-90 -194 0
-107 -194 0
-90 -107 0
-175 -189 0
-52 -189 0
-17 -189 0
-129 -189 0
-12 -189 0
-189 -228 0
-104 -189 0
-52 -175 0
-17 -175 0
-129 -175 0
-12 -175 0
-175 -228 0
-104 -175 0
-17 -52 0
-52 -129 0
-12 -52 0
-52 -228 0
-52 -104 0
-17 -129 0
-12 -17 0
-17 -228 0
-17 -104 0
-12 -129 0
-129 -228 0
-104 -129 0
-12 -228 0
-12 -104 0
-104 -228 0
-23 -89 0
-23 -109 0
-16 -23 0
-14 -23 0
-23 -210 0
-11 -23 0
-23 -68 0
-89 -109 0
-16 -89 0
-14 -89 0
-89 -210 0
-11 -89 0
-68 -89 0
-16 -109 0
-14 -109 0
-109 -210 0
-11 -109 0
-68 -109 0
-14 -16 0
-16 -210 0
-11 -16 0
-16 -68 0
-14 -210 0
-11 -14 0
-14 -68 0
-11 -210 0
-68 -210 0
-11 -68 0
-84 -113 0
-113 -145 0
-113 -191 0
-113 -218 0
-113 -156 0
-113 -246 0
-113 -141 0
-84 -145 0
-84 -191 0
-84 -218 0
-84 -156 0
-84 -246 0
-84 -141 0
-145 -191 0
-145 -218 0
-145 -156 0
-145 -246 0
-141 -145 0
-191 -218 0
-156 -191 0
-191 -246 0
-141 -191 0
-156 -218 0
-218 -246 0
-141 -218 0
-156 -246 0
-141 -156 0
-141 -246 0
-20 -22 0
-22 -58 0
-22 -205 0
-22 -222 0
-22 -139 0
-22 -249 0
-22 -178 0
-20 -58 0
-20 -205 0
-20 -222 0
-20 -139 0
-20 -249 0
-20 -178 0
-58 -205 0
-58 -222 0
-58 -139 0
-58 -249 0
-58 -178 0
-205 -222 0
-139 -205 0
-205 -249 0
-178 -205 0
-139 -222 0
-222 -249 0
-178 -222 0
-139 -249 0
-139 -178 0
-178 -249 0
-21 -187 0
-21 -153 0
-21 -207 0
-21 -229 0
-21 -212 0
-21 -76 0
-21 -64 0
-153 -187 0
-187 -207 0
-187 -229 0
-187 -212 0
-76 -187 0
-64 -187 0
-153 -207 0
-153 -229 0
-153 -212 0
-76 -153 0
-64 -153 0
-207 -229 0
-207 -212 0
-76 -207 0
-64 -207 0
-212 -229 0
-76 -229 0
-64 -229 0
-76 -212 0
-64 -212 0
-64 -76 0
-80 -106 0
-106 -158 0
-106 -167 0
-102 -106 0
-40 -106 0
-106 -115 0
-106 -223 0
-80 -158 0
-80 -167 0
-80 -102 0
-40 -80 0
-80 -115 0
-80 -223 0
-158 -167 0
-102 -158 0
-40 -158 0
-115 -158 0
-158 -223 0
-102 -167 0
-40 -167 0
-115 -167 0
-167 -223 0
-40 -102 0
-102 -115 0
-102 -223 0
-40 -115 0
-40 -223 0
-115 -223 0
-118 -215 0
-18 -215 0
-15 -215 0
-13 -215 0
-134 -215 0
-37 -215 0
-81 -215 0
-18 -118 0
-15 -118 0
-13 -118 0
-118 -134 0
-37 -118 0
-81 -118 0
-15 -18 0
-13 -18 0
-18 -134 0
-18 -37 0
-18 -81 0
-13 -15 0
-15 -134 0
-15 -37 0
-15 -81 0
-13 -134 0
-13 -37 0
-13 -81 0
-37 -134 0
-81 -134 0
-37 -81 0
-10 -163 0
-152 -163 0
-163 -177 0
-163 -241 0
-136 -163 0
-10 -152 0
-10 -177 0
-10 -241 0
-10 -136 0
-152 -177 0
-152 -241 0
-136 -152 0
-177 -241 0
-136 -177 0
-136 -241 0
-96 -111 0
-72 -96 0
-9 -96 0
-96 -100 0
-8 -96 0
-72 -111 0
-9 -111 0
-100 -111 0
-8 -111 0
-9 -72 0
-72 -100 0
-8 -72 0
-9 -100 0
-8 -9 0
-8 -100 0
-7 -144 0
-6 -7 0
-7 -188 0
-7 -192 0
-7 -114 0
-6 -144 0
-144 -188 0
-144 -192 0
-114 -144 0
-6 -188 0
-6 -192 0
-6 -114 0
-188 -192 0
-114 -188 0
-114 -192 0
-204 -243 0
-119 -243 0
-208 -243 0
-43 -243 0
-5 -243 0
-119 -204 0
-204 -208 0
-43 -204 0
-5 -204 0
-119 -208 0
-43 -119 0
-5 -119 0
-43 -208 0
-5 -208 0
-5 -43 0
-4 -196 0
-4 -133 0
-4 -214 0
-4 -150 0
-4 -220 0
-133 -196 0
-196 -214 0
-150 -196 0
-196 -220 0
-133 -214 0
-133 -150 0
-133 -220 0
-150 -214 0
-214 -220 0
-150 -220 0
-70 -122 0
-70 -174 0
-70 -88 0
-19 -70 0
-70 -185 0
-122 -174 0
-88 -122 0
-19 -122 0
-122 -185 0
-88 -174 0
-19 -174 0
-174 -185 0
-19 -88 0
-88 -185 0
-19 -185 0
-96 -163 0
-7 -163 0
-163 -243 0
-4 -163 0
-70 -163 0
-7 -96 0
-96 -243 0
-4 -96 0
-70 -96 0
-7 -243 0
-4 -7 0
-7 -70 0
-4 -243 0
-70 -243 0
-4 -70 0
-10 -111 0
-10 -144 0
-10 -204 0
-10 -196 0
-10 -122 0
-111 -144 0
-111 -204 0
-111 -196 0
-111 -122 0
-144 -204 0
-144 -196 0
-122 -144 0
-196 -204 0
-122 -204 0
-122 -196 0
-72 -152 0
-6 -152 0
-119 -152 0
-133 -152 0
-152 -174 0
-6 -72 0
-72 -119 0
-72 -133 0
-72 -174 0
-6 -119 0
-6 -133 0
-6 -174 0
-119 -133 0
-119 -174 0
-133 -174 0
-9 -177 0
-177 -188 0
-177 -208 0
-177 -214 0
-88 -177 0
-9 -188 0
-9 -208 0
-9 -214 0
-9 -88 0
-188 -208 0
-188 -214 0
-88 -188 0
-208 -214 0
-88 -208 0
-88 -214 0
-100 -241 0
-192 -241 0
-43 -241 0
-150 -241 0
-19 -241 0
-100 -192 0
-43 -100 0
-100 -150 0
-19 -100 0
-43 -192 0
-150 -192 0
-19 -192 0
-43 -150 0
-19 -43 0
-19 -150 0
-8 -136 0
-114 -136 0
-5 -136 0
-136 -220 0
-136 -185 0
-8 -114 0
-5 -8 0
-8 -220 0
-8 -185 0
-5 -114 0
-114 -220 0
-114 -185 0
-5 -220 0
-5 -185 0
-185 -220 0
-170 -237 0
-173 -237 0
-164 -237 0
-60 -237 0
-170 -173 0
-164 -170 0
-60 -170 0
-164 -173 0
-60 -173 0
-60 -164 0
-2 -3 0
-3 -130 0
-3 -94 0
-3 -193 0
-2 -130 0
-2 -94 0
-2 -193 0
-94 -130 0
-130 -193 0
-94 -193 0
-50 -165 0
-165 -199 0
-148 -165 0
-165 -201 0
-50 -199 0
-50 -148 0
-50 -201 0
-148 -199 0
-199 -201 0
-148 -201 0
-85 -125 0
-125 -231 0
-98 -125 0
-1 -125 0
-85 -231 0
-85 -98 0
-1 -85 0
-98 -231 0
-1 -231 0
-1 -98 0
-95 -242 0
-75 -242 0
-110 -242 0
-73 -242 0
-75 -95 0
-95 -110 0
-73 -95 0
-75 -110 0
-73 -75 0
-73 -110 0
-3 -237 0
-165 -237 0
-125 -237 0
-237 -242 0
-3 -165 0
-3 -125 0
-3 -242 0
-125 -165 0
-165 -242 0
-125 -242 0
-2 -170 0
-50 -170 0
-85 -170 0
-95 -170 0
-2 -50 0
-2 -85 0
-2 -95 0
-50 -85 0
-50 -95 0
-85 -95 0
-130 -173 0
-173 -199 0
-173 -231 0
-75 -173 0
-130 -199 0
-130 -231 0
-75 -130 0
-199 -231 0
-75 -199 0
-75 -231 0
-94 -164 0
-148 -164 0
-98 -164 0
-110 -164 0
-94 -148 0
-94 -98 0
-94 -110 0
-98 -148 0
-110 -148 0
-98 -110 0
-60 -193 0
-60 -201 0
-1 -60 0
-60 -73 0
-193 -201 0
-1 -193 0
-73 -193 0
-1 -201 0
-73 -201 0
-1 -73 0
